[runlim] version:		1.10
[runlim] time limit:		311040000 seconds
[runlim] real time limit:	600 seconds
[runlim] space limit:		14000 MB
[runlim] argv[0]:		python3
[runlim] argv[1]:		-u
[runlim] argv[2]:		mip.py
[runlim] argv[3]:		graph02
[runlim] start:			Tue Jan 20 12:25:35 2026
[runlim] main pid:		4180
Building MIP model...
[runlim] sample:		10.0 time, 10.7 real, 32.4 MB
[runlim] sample:		20.0 time, 20.7 real, 35.3 MB
[runlim] sample:		30.0 time, 30.7 real, 37.8 MB
Build time: 31.68s
Solving MIP (minimizing number of labels)...
Version identifier: 22.1.1.0 | 2022-11-28 | 9160aff4d
CPXPARAM_Read_DataCheck                          1
Legacy callback                                  i
Tried aggregator 2 times.
MIP Presolve eliminated 177483 rows and 0 columns.
MIP Presolve modified 20063 coefficients.
Aggregator did 7312 substitutions.
Reduced MIP has 20282 rows, 7360 columns, and 177344 nonzeros.
Reduced MIP has 7360 binaries, 0 generals, 0 SOSs, and 0 indicators.
Presolve time = 0.67 sec. (654.77 ticks)
Found incumbent of value 48.000000 after 0.82 sec. (883.62 ticks)
Probing time = 0.01 sec. (3.43 ticks)
Tried aggregator 1 time.
Detecting symmetries...
Reduced MIP has 20282 rows, 7360 columns, and 177344 nonzeros.
Reduced MIP has 7360 binaries, 0 generals, 0 SOSs, and 0 indicators.
Presolve time = 0.16 sec. (172.09 ticks)
Probing time = 0.02 sec. (3.82 ticks)
Clique table members: 20282.
MIP emphasis: balance optimality and feasibility.
MIP search method: dynamic search.
Parallel mode: deterministic, using up to 12 threads.
Root relaxation solution time = 1.97 sec. (1532.53 ticks)

        Nodes                                         Cuts/
   Node  Left     Objective  IInf  Best Integer    Best Bound    ItCnt     Gap

*     0+    0                           48.0000        0.0000           100.00%
*     0+    0                           22.0000        0.0000           100.00%
      0     0       14.0000   455       22.0000       14.0000     9305   36.36%

========== NEW INCUMBENT SOLUTION ==========
{1: 778, 2: 540, 3: 680, 4: 442, 5: 142, 6: 380, 7: 456, 8: 694, 9: 380, 10: 142, 11: 268, 12: 30, 13: 778, 14: 540, 15: 540, 16: 778, 17: 680, 18: 442, 19: 694, 20: 456, 21: 380, 22: 142, 23: 30, 24: 268, 25: 142, 26: 380, 27: 142, 28: 380, 29: 540, 30: 778, 31: 30, 32: 268, 33: 456, 34: 694, 35: 268, 36: 30, 37: 694, 38: 456, 39: 778, 40: 540, 41: 456, 42: 694, 43: 708, 44: 470, 45: 540, 46: 778, 47: 456, 48: 694, 49: 380, 50: 142, 51: 442, 52: 680, 53: 478, 54: 240, 55: 694, 56: 456, 57: 380, 58: 142, 59: 694, 60: 456, 61: 380, 62: 142, 63: 268, 64: 30, 65: 380, 66: 142, 67: 694, 68: 456, 69: 708, 70: 470, 71: 240, 72: 478, 73: 456, 74: 694, 75: 380, 76: 142, 77: 142, 78: 380, 79: 694, 80: 456, 81: 142, 82: 380, 83: 778, 84: 540, 85: 456, 86: 694, 87: 380, 88: 142, 89: 540, 90: 778, 91: 142, 92: 380, 93: 470, 94: 708, 95: 778, 96: 540, 97: 470, 98: 708, 99: 680, 100: 442, 101: 694, 102: 456, 103: 694, 104: 456, 105: 268, 106: 30, 107: 680, 108: 442, 109: 680, 110: 442, 111: 30, 112: 268, 113: 30, 114: 268, 115: 142, 116: 380, 117: 778, 118: 540, 119: 170, 120: 408, 121: 456, 122: 694, 123: 470, 124: 708, 125: 680, 126: 442, 127: 268, 128: 30, 129: 478, 130: 240, 131: 380, 132: 142, 133: 456, 134: 694, 135: 478, 136: 240, 137: 456, 138: 694, 139: 694, 140: 456, 141: 470, 142: 708, 143: 456, 144: 694, 145: 30, 146: 268, 147: 268, 148: 30, 149: 282, 150: 44, 151: 30, 152: 268, 153: 30, 154: 268, 155: 478, 156: 240, 157: 708, 158: 470, 159: 778, 160: 540, 161: 470, 162: 708, 163: 478, 164: 240, 165: 282, 166: 44, 167: 30, 168: 268, 169: 694, 170: 456, 171: 708, 172: 470, 173: 708, 174: 470, 175: 30, 176: 268, 177: 30, 178: 268, 179: 240, 180: 478, 181: 268, 182: 30, 183: 694, 184: 456, 185: 30, 186: 268, 187: 708, 188: 470, 189: 408, 190: 170, 191: 310, 192: 72, 193: 44, 194: 282, 195: 30, 196: 268, 197: 708, 198: 470, 199: 470, 200: 708, 201: 142, 202: 380, 203: 30, 204: 268, 205: 268, 206: 30, 207: 30, 208: 268, 209: 456, 210: 694, 211: 456, 212: 694, 213: 170, 214: 408, 215: 442, 216: 680, 217: 142, 218: 380, 219: 456, 220: 694, 221: 268, 222: 30, 223: 680, 224: 442, 225: 470, 226: 708, 227: 142, 228: 380, 229: 30, 230: 268, 231: 30, 232: 268, 233: 680, 234: 442, 235: 268, 236: 30, 237: 540, 238: 778, 239: 442, 240: 680, 241: 778, 242: 540, 243: 708, 244: 470, 245: 680, 246: 442, 247: 240, 248: 478, 249: 282, 250: 44, 251: 30, 252: 268, 253: 268, 254: 30, 255: 478, 256: 240, 257: 380, 258: 142, 259: 240, 260: 478, 261: 456, 262: 694, 263: 408, 264: 170, 265: 240, 266: 478, 267: 456, 268: 694, 269: 540, 270: 778, 271: 30, 272: 268, 273: 282, 274: 44, 275: 142, 276: 380, 277: 44, 278: 282, 279: 778, 280: 540, 281: 268, 282: 30, 283: 380, 284: 142, 285: 170, 286: 408, 287: 456, 288: 694, 289: 540, 290: 778, 291: 240, 292: 478, 293: 240, 294: 478, 295: 694, 296: 456, 297: 478, 298: 240, 299: 478, 300: 240, 301: 414, 302: 652, 303: 708, 304: 470, 305: 44, 306: 282, 307: 470, 308: 708, 309: 380, 310: 142, 311: 478, 312: 240, 313: 240, 314: 478, 315: 778, 316: 540, 317: 240, 318: 478, 319: 30, 320: 268, 321: 540, 322: 778, 323: 380, 324: 142, 325: 30, 326: 268, 327: 142, 328: 380, 329: 142, 330: 380, 331: 694, 332: 456, 333: 778, 334: 540, 335: 680, 336: 442, 337: 456, 338: 694, 339: 240, 340: 478, 341: 680, 342: 442, 343: 380, 344: 142, 345: 778, 346: 540, 347: 694, 348: 456, 349: 408, 350: 170, 351: 380, 352: 142, 353: 268, 354: 30, 355: 778, 356: 540, 357: 44, 358: 282, 359: 142, 360: 380, 361: 142, 362: 380, 363: 708, 364: 470, 365: 680, 366: 442, 367: 72, 368: 310, 369: 540, 370: 778, 371: 652, 372: 414, 373: 708, 374: 470, 375: 540, 376: 778, 377: 652, 378: 414, 379: 470, 380: 708, 381: 380, 382: 142, 383: 268, 384: 30, 385: 694, 386: 456, 387: 380, 388: 142, 389: 30, 390: 268, 391: 470, 392: 708, 393: 142, 394: 380, 395: 142, 396: 380, 397: 778, 398: 540, 399: 470, 400: 708}
Number of labels used: 22
Total time: 34.76 sec
Memory: 282.48 MB
=============================================

========== NEW INCUMBENT SOLUTION ==========
{1: 778, 2: 540, 3: 680, 4: 442, 5: 142, 6: 380, 7: 456, 8: 694, 9: 380, 10: 142, 11: 268, 12: 30, 13: 778, 14: 540, 15: 540, 16: 778, 17: 680, 18: 442, 19: 694, 20: 456, 21: 380, 22: 142, 23: 30, 24: 268, 25: 142, 26: 380, 27: 142, 28: 380, 29: 540, 30: 778, 31: 30, 32: 268, 33: 456, 34: 694, 35: 268, 36: 30, 37: 694, 38: 456, 39: 778, 40: 540, 41: 456, 42: 694, 43: 708, 44: 470, 45: 540, 46: 778, 47: 456, 48: 694, 49: 380, 50: 142, 51: 442, 52: 680, 53: 478, 54: 240, 55: 694, 56: 456, 57: 380, 58: 142, 59: 694, 60: 456, 61: 380, 62: 142, 63: 268, 64: 30, 65: 380, 66: 142, 67: 694, 68: 456, 69: 708, 70: 470, 71: 240, 72: 478, 73: 456, 74: 694, 75: 380, 76: 142, 77: 142, 78: 380, 79: 694, 80: 456, 81: 142, 82: 380, 83: 778, 84: 540, 85: 456, 86: 694, 87: 380, 88: 142, 89: 540, 90: 778, 91: 142, 92: 380, 93: 470, 94: 708, 95: 778, 96: 540, 97: 470, 98: 708, 99: 680, 100: 442, 101: 694, 102: 456, 103: 694, 104: 456, 105: 268, 106: 30, 107: 680, 108: 442, 109: 680, 110: 442, 111: 30, 112: 268, 113: 30, 114: 268, 115: 142, 116: 380, 117: 778, 118: 540, 119: 170, 120: 408, 121: 456, 122: 694, 123: 470, 124: 708, 125: 680, 126: 442, 127: 268, 128: 30, 129: 478, 130: 240, 131: 380, 132: 142, 133: 456, 134: 694, 135: 478, 136: 240, 137: 456, 138: 694, 139: 694, 140: 456, 141: 470, 142: 708, 143: 456, 144: 694, 145: 30, 146: 268, 147: 268, 148: 30, 149: 282, 150: 44, 151: 30, 152: 268, 153: 30, 154: 268, 155: 478, 156: 240, 157: 708, 158: 470, 159: 778, 160: 540, 161: 470, 162: 708, 163: 478, 164: 240, 165: 282, 166: 44, 167: 30, 168: 268, 169: 694, 170: 456, 171: 708, 172: 470, 173: 708, 174: 470, 175: 30, 176: 268, 177: 30, 178: 268, 179: 240, 180: 478, 181: 268, 182: 30, 183: 694, 184: 456, 185: 30, 186: 268, 187: 708, 188: 470, 189: 408, 190: 170, 191: 310, 192: 72, 193: 44, 194: 282, 195: 30, 196: 268, 197: 708, 198: 470, 199: 470, 200: 708, 201: 142, 202: 380, 203: 30, 204: 268, 205: 268, 206: 30, 207: 30, 208: 268, 209: 456, 210: 694, 211: 456, 212: 694, 213: 170, 214: 408, 215: 442, 216: 680, 217: 142, 218: 380, 219: 456, 220: 694, 221: 268, 222: 30, 223: 680, 224: 442, 225: 470, 226: 708, 227: 142, 228: 380, 229: 30, 230: 268, 231: 30, 232: 268, 233: 680, 234: 442, 235: 268, 236: 30, 237: 540, 238: 778, 239: 442, 240: 680, 241: 778, 242: 540, 243: 708, 244: 470, 245: 680, 246: 442, 247: 240, 248: 478, 249: 282, 250: 44, 251: 30, 252: 268, 253: 268, 254: 30, 255: 478, 256: 240, 257: 380, 258: 142, 259: 240, 260: 478, 261: 456, 262: 694, 263: 408, 264: 170, 265: 240, 266: 478, 267: 456, 268: 694, 269: 540, 270: 778, 271: 30, 272: 268, 273: 282, 274: 44, 275: 142, 276: 380, 277: 44, 278: 282, 279: 778, 280: 540, 281: 268, 282: 30, 283: 380, 284: 142, 285: 170, 286: 408, 287: 456, 288: 694, 289: 540, 290: 778, 291: 240, 292: 478, 293: 240, 294: 478, 295: 694, 296: 456, 297: 478, 298: 240, 299: 478, 300: 240, 301: 414, 302: 652, 303: 708, 304: 470, 305: 44, 306: 282, 307: 470, 308: 708, 309: 380, 310: 142, 311: 478, 312: 240, 313: 240, 314: 478, 315: 778, 316: 540, 317: 240, 318: 478, 319: 30, 320: 268, 321: 540, 322: 778, 323: 380, 324: 142, 325: 30, 326: 268, 327: 142, 328: 380, 329: 142, 330: 380, 331: 694, 332: 456, 333: 778, 334: 540, 335: 680, 336: 442, 337: 456, 338: 694, 339: 240, 340: 478, 341: 680, 342: 442, 343: 380, 344: 142, 345: 778, 346: 540, 347: 694, 348: 456, 349: 408, 350: 170, 351: 380, 352: 142, 353: 268, 354: 30, 355: 778, 356: 540, 357: 44, 358: 282, 359: 142, 360: 380, 361: 142, 362: 380, 363: 708, 364: 470, 365: 680, 366: 442, 367: 72, 368: 310, 369: 540, 370: 778, 371: 652, 372: 414, 373: 708, 374: 470, 375: 540, 376: 778, 377: 652, 378: 414, 379: 470, 380: 708, 381: 380, 382: 142, 383: 268, 384: 30, 385: 694, 386: 456, 387: 380, 388: 142, 389: 30, 390: 268, 391: 470, 392: 708, 393: 142, 394: 380, 395: 142, 396: 380, 397: 778, 398: 540, 399: 470, 400: 708}
Number of labels used: 22
Total time: 34.76 sec
Memory: 282.69 MB
=============================================
*     0+    0                           20.0000       14.0000            30.00%

========== NEW INCUMBENT SOLUTION ==========
{1: 254, 2: 16, 3: 394, 4: 156, 5: 540, 6: 778, 7: 778, 8: 540, 9: 554, 10: 792, 11: 268, 12: 30, 13: 254, 14: 16, 15: 554, 16: 792, 17: 156, 18: 394, 19: 30, 20: 268, 21: 414, 22: 652, 23: 394, 24: 156, 25: 268, 26: 30, 27: 142, 28: 380, 29: 652, 30: 414, 31: 652, 32: 414, 33: 652, 34: 414, 35: 554, 36: 792, 37: 142, 38: 380, 39: 142, 40: 380, 41: 456, 42: 694, 43: 652, 44: 414, 45: 540, 46: 778, 47: 456, 48: 694, 49: 380, 50: 142, 51: 414, 52: 652, 53: 478, 54: 240, 55: 394, 56: 156, 57: 778, 58: 540, 59: 394, 60: 156, 61: 554, 62: 792, 63: 778, 64: 540, 65: 30, 66: 268, 67: 694, 68: 456, 69: 268, 70: 30, 71: 240, 72: 478, 73: 456, 74: 694, 75: 792, 76: 554, 77: 540, 78: 778, 79: 694, 80: 456, 81: 652, 82: 414, 83: 792, 84: 554, 85: 456, 86: 694, 87: 792, 88: 554, 89: 394, 90: 156, 91: 30, 92: 268, 93: 268, 94: 30, 95: 414, 96: 652, 97: 16, 98: 254, 99: 554, 100: 792, 101: 694, 102: 456, 103: 694, 104: 456, 105: 652, 106: 414, 107: 30, 108: 268, 109: 554, 110: 792, 111: 30, 112: 268, 113: 540, 114: 778, 115: 554, 116: 792, 117: 554, 118: 792, 119: 380, 120: 142, 121: 554, 122: 792, 123: 554, 124: 792, 125: 30, 126: 268, 127: 540, 128: 778, 129: 478, 130: 240, 131: 16, 132: 254, 133: 456, 134: 694, 135: 478, 136: 240, 137: 414, 138: 652, 139: 414, 140: 652, 141: 414, 142: 652, 143: 456, 144: 694, 145: 394, 146: 156, 147: 268, 148: 30, 149: 254, 150: 16, 151: 778, 152: 540, 153: 540, 154: 778, 155: 478, 156: 240, 157: 652, 158: 414, 159: 394, 160: 156, 161: 380, 162: 142, 163: 240, 164: 478, 165: 282, 166: 44, 167: 30, 168: 268, 169: 694, 170: 456, 171: 30, 172: 268, 173: 142, 174: 380, 175: 792, 176: 554, 177: 792, 178: 554, 179: 240, 180: 478, 181: 540, 182: 778, 183: 792, 184: 554, 185: 30, 186: 268, 187: 394, 188: 156, 189: 478, 190: 240, 191: 652, 192: 414, 193: 44, 194: 282, 195: 778, 196: 540, 197: 414, 198: 652, 199: 380, 200: 142, 201: 652, 202: 414, 203: 540, 204: 778, 205: 778, 206: 540, 207: 792, 208: 554, 209: 456, 210: 694, 211: 778, 212: 540, 213: 240, 214: 478, 215: 652, 216: 414, 217: 142, 218: 380, 219: 554, 220: 792, 221: 156, 222: 394, 223: 30, 224: 268, 225: 16, 226: 254, 227: 240, 228: 478, 229: 554, 230: 792, 231: 652, 232: 414, 233: 380, 234: 142, 235: 30, 236: 268, 237: 540, 238: 778, 239: 414, 240: 652, 241: 792, 242: 554, 243: 652, 244: 414, 245: 778, 246: 540, 247: 240, 248: 478, 249: 282, 250: 44, 251: 394, 252: 156, 253: 268, 254: 30, 255: 478, 256: 240, 257: 652, 258: 414, 259: 240, 260: 478, 261: 380, 262: 142, 263: 142, 264: 380, 265: 240, 266: 478, 267: 456, 268: 694, 269: 540, 270: 778, 271: 30, 272: 268, 273: 282, 274: 44, 275: 142, 276: 380, 277: 778, 278: 540, 279: 540, 280: 778, 281: 778, 282: 540, 283: 30, 284: 268, 285: 478, 286: 240, 287: 456, 288: 694, 289: 16, 290: 254, 291: 142, 292: 380, 293: 380, 294: 142, 295: 30, 296: 268, 297: 478, 298: 240, 299: 478, 300: 240, 301: 414, 302: 652, 303: 254, 304: 16, 305: 540, 306: 778, 307: 268, 308: 30, 309: 478, 310: 240, 311: 240, 312: 478, 313: 240, 314: 478, 315: 414, 316: 652, 317: 240, 318: 478, 319: 380, 320: 142, 321: 554, 322: 792, 323: 380, 324: 142, 325: 394, 326: 156, 327: 142, 328: 380, 329: 30, 330: 268, 331: 694, 332: 456, 333: 30, 334: 268, 335: 254, 336: 16, 337: 456, 338: 694, 339: 142, 340: 380, 341: 414, 342: 652, 343: 792, 344: 554, 345: 778, 346: 540, 347: 694, 348: 456, 349: 142, 350: 380, 351: 478, 352: 240, 353: 778, 354: 540, 355: 652, 356: 414, 357: 44, 358: 282, 359: 778, 360: 540, 361: 380, 362: 142, 363: 30, 364: 268, 365: 652, 366: 414, 367: 652, 368: 414, 369: 540, 370: 778, 371: 16, 372: 254, 373: 652, 374: 414, 375: 30, 376: 268, 377: 268, 378: 30, 379: 652, 380: 414, 381: 30, 382: 268, 383: 652, 384: 414, 385: 30, 386: 268, 387: 540, 388: 778, 389: 554, 390: 792, 391: 254, 392: 16, 393: 554, 394: 792, 395: 268, 396: 30, 397: 394, 398: 156, 399: 268, 400: 30}
Number of labels used: 20
Total time: 36.46 sec
Memory: 320.91 MB
=============================================
      0     0       14.0000    59       20.0000    Cliques: 1     9355   30.00%

========== NEW INCUMBENT SOLUTION ==========
{1: 254, 2: 16, 3: 394, 4: 156, 5: 540, 6: 778, 7: 778, 8: 540, 9: 554, 10: 792, 11: 268, 12: 30, 13: 254, 14: 16, 15: 554, 16: 792, 17: 156, 18: 394, 19: 30, 20: 268, 21: 414, 22: 652, 23: 394, 24: 156, 25: 268, 26: 30, 27: 142, 28: 380, 29: 652, 30: 414, 31: 652, 32: 414, 33: 652, 34: 414, 35: 554, 36: 792, 37: 142, 38: 380, 39: 142, 40: 380, 41: 456, 42: 694, 43: 652, 44: 414, 45: 540, 46: 778, 47: 456, 48: 694, 49: 380, 50: 142, 51: 414, 52: 652, 53: 478, 54: 240, 55: 394, 56: 156, 57: 778, 58: 540, 59: 394, 60: 156, 61: 554, 62: 792, 63: 778, 64: 540, 65: 30, 66: 268, 67: 694, 68: 456, 69: 268, 70: 30, 71: 240, 72: 478, 73: 456, 74: 694, 75: 792, 76: 554, 77: 540, 78: 778, 79: 694, 80: 456, 81: 652, 82: 414, 83: 792, 84: 554, 85: 456, 86: 694, 87: 792, 88: 554, 89: 394, 90: 156, 91: 30, 92: 268, 93: 268, 94: 30, 95: 414, 96: 652, 97: 16, 98: 254, 99: 554, 100: 792, 101: 694, 102: 456, 103: 694, 104: 456, 105: 652, 106: 414, 107: 30, 108: 268, 109: 554, 110: 792, 111: 30, 112: 268, 113: 540, 114: 778, 115: 554, 116: 792, 117: 554, 118: 792, 119: 380, 120: 142, 121: 554, 122: 792, 123: 554, 124: 792, 125: 30, 126: 268, 127: 540, 128: 778, 129: 478, 130: 240, 131: 16, 132: 254, 133: 456, 134: 694, 135: 478, 136: 240, 137: 414, 138: 652, 139: 414, 140: 652, 141: 414, 142: 652, 143: 456, 144: 694, 145: 394, 146: 156, 147: 268, 148: 30, 149: 254, 150: 16, 151: 778, 152: 540, 153: 540, 154: 778, 155: 478, 156: 240, 157: 652, 158: 414, 159: 394, 160: 156, 161: 380, 162: 142, 163: 240, 164: 478, 165: 282, 166: 44, 167: 30, 168: 268, 169: 694, 170: 456, 171: 30, 172: 268, 173: 142, 174: 380, 175: 792, 176: 554, 177: 792, 178: 554, 179: 240, 180: 478, 181: 540, 182: 778, 183: 792, 184: 554, 185: 30, 186: 268, 187: 394, 188: 156, 189: 478, 190: 240, 191: 652, 192: 414, 193: 44, 194: 282, 195: 778, 196: 540, 197: 414, 198: 652, 199: 380, 200: 142, 201: 652, 202: 414, 203: 540, 204: 778, 205: 778, 206: 540, 207: 792, 208: 554, 209: 456, 210: 694, 211: 778, 212: 540, 213: 240, 214: 478, 215: 652, 216: 414, 217: 142, 218: 380, 219: 554, 220: 792, 221: 156, 222: 394, 223: 30, 224: 268, 225: 16, 226: 254, 227: 240, 228: 478, 229: 554, 230: 792, 231: 652, 232: 414, 233: 380, 234: 142, 235: 30, 236: 268, 237: 540, 238: 778, 239: 414, 240: 652, 241: 792, 242: 554, 243: 652, 244: 414, 245: 778, 246: 540, 247: 240, 248: 478, 249: 282, 250: 44, 251: 394, 252: 156, 253: 268, 254: 30, 255: 478, 256: 240, 257: 652, 258: 414, 259: 240, 260: 478, 261: 380, 262: 142, 263: 142, 264: 380, 265: 240, 266: 478, 267: 456, 268: 694, 269: 540, 270: 778, 271: 30, 272: 268, 273: 282, 274: 44, 275: 142, 276: 380, 277: 778, 278: 540, 279: 540, 280: 778, 281: 778, 282: 540, 283: 30, 284: 268, 285: 478, 286: 240, 287: 456, 288: 694, 289: 16, 290: 254, 291: 142, 292: 380, 293: 380, 294: 142, 295: 30, 296: 268, 297: 478, 298: 240, 299: 478, 300: 240, 301: 414, 302: 652, 303: 254, 304: 16, 305: 540, 306: 778, 307: 268, 308: 30, 309: 478, 310: 240, 311: 240, 312: 478, 313: 240, 314: 478, 315: 414, 316: 652, 317: 240, 318: 478, 319: 380, 320: 142, 321: 554, 322: 792, 323: 380, 324: 142, 325: 394, 326: 156, 327: 142, 328: 380, 329: 30, 330: 268, 331: 694, 332: 456, 333: 30, 334: 268, 335: 254, 336: 16, 337: 456, 338: 694, 339: 142, 340: 380, 341: 414, 342: 652, 343: 792, 344: 554, 345: 778, 346: 540, 347: 694, 348: 456, 349: 142, 350: 380, 351: 478, 352: 240, 353: 778, 354: 540, 355: 652, 356: 414, 357: 44, 358: 282, 359: 778, 360: 540, 361: 380, 362: 142, 363: 30, 364: 268, 365: 652, 366: 414, 367: 652, 368: 414, 369: 540, 370: 778, 371: 16, 372: 254, 373: 652, 374: 414, 375: 30, 376: 268, 377: 268, 378: 30, 379: 652, 380: 414, 381: 30, 382: 268, 383: 652, 384: 414, 385: 30, 386: 268, 387: 540, 388: 778, 389: 554, 390: 792, 391: 254, 392: 16, 393: 554, 394: 792, 395: 268, 396: 30, 397: 394, 398: 156, 399: 268, 400: 30}
Number of labels used: 20
Total time: 36.47 sec
Memory: 320.91 MB
=============================================

========== NEW INCUMBENT SOLUTION ==========
{1: 254, 2: 16, 3: 394, 4: 156, 5: 540, 6: 778, 7: 778, 8: 540, 9: 554, 10: 792, 11: 268, 12: 30, 13: 254, 14: 16, 15: 554, 16: 792, 17: 156, 18: 394, 19: 30, 20: 268, 21: 414, 22: 652, 23: 394, 24: 156, 25: 268, 26: 30, 27: 142, 28: 380, 29: 652, 30: 414, 31: 652, 32: 414, 33: 652, 34: 414, 35: 554, 36: 792, 37: 142, 38: 380, 39: 142, 40: 380, 41: 456, 42: 694, 43: 652, 44: 414, 45: 540, 46: 778, 47: 456, 48: 694, 49: 380, 50: 142, 51: 414, 52: 652, 53: 478, 54: 240, 55: 394, 56: 156, 57: 778, 58: 540, 59: 394, 60: 156, 61: 554, 62: 792, 63: 778, 64: 540, 65: 30, 66: 268, 67: 694, 68: 456, 69: 268, 70: 30, 71: 240, 72: 478, 73: 456, 74: 694, 75: 792, 76: 554, 77: 540, 78: 778, 79: 694, 80: 456, 81: 652, 82: 414, 83: 792, 84: 554, 85: 456, 86: 694, 87: 792, 88: 554, 89: 394, 90: 156, 91: 30, 92: 268, 93: 268, 94: 30, 95: 414, 96: 652, 97: 16, 98: 254, 99: 554, 100: 792, 101: 694, 102: 456, 103: 694, 104: 456, 105: 652, 106: 414, 107: 30, 108: 268, 109: 554, 110: 792, 111: 30, 112: 268, 113: 540, 114: 778, 115: 554, 116: 792, 117: 554, 118: 792, 119: 380, 120: 142, 121: 554, 122: 792, 123: 554, 124: 792, 125: 30, 126: 268, 127: 540, 128: 778, 129: 478, 130: 240, 131: 16, 132: 254, 133: 456, 134: 694, 135: 478, 136: 240, 137: 414, 138: 652, 139: 414, 140: 652, 141: 414, 142: 652, 143: 456, 144: 694, 145: 394, 146: 156, 147: 268, 148: 30, 149: 254, 150: 16, 151: 778, 152: 540, 153: 540, 154: 778, 155: 478, 156: 240, 157: 652, 158: 414, 159: 394, 160: 156, 161: 380, 162: 142, 163: 240, 164: 478, 165: 282, 166: 44, 167: 30, 168: 268, 169: 694, 170: 456, 171: 30, 172: 268, 173: 142, 174: 380, 175: 792, 176: 554, 177: 792, 178: 554, 179: 240, 180: 478, 181: 540, 182: 778, 183: 792, 184: 554, 185: 30, 186: 268, 187: 394, 188: 156, 189: 478, 190: 240, 191: 652, 192: 414, 193: 44, 194: 282, 195: 778, 196: 540, 197: 414, 198: 652, 199: 380, 200: 142, 201: 652, 202: 414, 203: 540, 204: 778, 205: 778, 206: 540, 207: 792, 208: 554, 209: 456, 210: 694, 211: 778, 212: 540, 213: 240, 214: 478, 215: 652, 216: 414, 217: 142, 218: 380, 219: 554, 220: 792, 221: 156, 222: 394, 223: 30, 224: 268, 225: 16, 226: 254, 227: 240, 228: 478, 229: 554, 230: 792, 231: 652, 232: 414, 233: 380, 234: 142, 235: 30, 236: 268, 237: 540, 238: 778, 239: 414, 240: 652, 241: 792, 242: 554, 243: 652, 244: 414, 245: 778, 246: 540, 247: 240, 248: 478, 249: 282, 250: 44, 251: 394, 252: 156, 253: 268, 254: 30, 255: 478, 256: 240, 257: 652, 258: 414, 259: 240, 260: 478, 261: 380, 262: 142, 263: 142, 264: 380, 265: 240, 266: 478, 267: 456, 268: 694, 269: 540, 270: 778, 271: 30, 272: 268, 273: 282, 274: 44, 275: 142, 276: 380, 277: 778, 278: 540, 279: 540, 280: 778, 281: 778, 282: 540, 283: 30, 284: 268, 285: 478, 286: 240, 287: 456, 288: 694, 289: 16, 290: 254, 291: 142, 292: 380, 293: 380, 294: 142, 295: 30, 296: 268, 297: 478, 298: 240, 299: 478, 300: 240, 301: 414, 302: 652, 303: 254, 304: 16, 305: 540, 306: 778, 307: 268, 308: 30, 309: 478, 310: 240, 311: 240, 312: 478, 313: 240, 314: 478, 315: 414, 316: 652, 317: 240, 318: 478, 319: 380, 320: 142, 321: 554, 322: 792, 323: 380, 324: 142, 325: 394, 326: 156, 327: 142, 328: 380, 329: 30, 330: 268, 331: 694, 332: 456, 333: 30, 334: 268, 335: 254, 336: 16, 337: 456, 338: 694, 339: 142, 340: 380, 341: 414, 342: 652, 343: 792, 344: 554, 345: 778, 346: 540, 347: 694, 348: 456, 349: 142, 350: 380, 351: 478, 352: 240, 353: 778, 354: 540, 355: 652, 356: 414, 357: 44, 358: 282, 359: 778, 360: 540, 361: 380, 362: 142, 363: 30, 364: 268, 365: 652, 366: 414, 367: 652, 368: 414, 369: 540, 370: 778, 371: 16, 372: 254, 373: 652, 374: 414, 375: 30, 376: 268, 377: 268, 378: 30, 379: 652, 380: 414, 381: 30, 382: 268, 383: 652, 384: 414, 385: 30, 386: 268, 387: 540, 388: 778, 389: 554, 390: 792, 391: 254, 392: 16, 393: 554, 394: 792, 395: 268, 396: 30, 397: 394, 398: 156, 399: 268, 400: 30}
Number of labels used: 20
Total time: 36.62 sec
Memory: 321.50 MB
=============================================
      0     0       14.0000    19       20.0000      Cuts: 38     9687   30.00%

========== NEW INCUMBENT SOLUTION ==========
{1: 254, 2: 16, 3: 394, 4: 156, 5: 540, 6: 778, 7: 778, 8: 540, 9: 554, 10: 792, 11: 268, 12: 30, 13: 254, 14: 16, 15: 554, 16: 792, 17: 156, 18: 394, 19: 30, 20: 268, 21: 414, 22: 652, 23: 394, 24: 156, 25: 268, 26: 30, 27: 142, 28: 380, 29: 652, 30: 414, 31: 652, 32: 414, 33: 652, 34: 414, 35: 554, 36: 792, 37: 142, 38: 380, 39: 142, 40: 380, 41: 456, 42: 694, 43: 652, 44: 414, 45: 540, 46: 778, 47: 456, 48: 694, 49: 380, 50: 142, 51: 414, 52: 652, 53: 478, 54: 240, 55: 394, 56: 156, 57: 778, 58: 540, 59: 394, 60: 156, 61: 554, 62: 792, 63: 778, 64: 540, 65: 30, 66: 268, 67: 694, 68: 456, 69: 268, 70: 30, 71: 240, 72: 478, 73: 456, 74: 694, 75: 792, 76: 554, 77: 540, 78: 778, 79: 694, 80: 456, 81: 652, 82: 414, 83: 792, 84: 554, 85: 456, 86: 694, 87: 792, 88: 554, 89: 394, 90: 156, 91: 30, 92: 268, 93: 268, 94: 30, 95: 414, 96: 652, 97: 16, 98: 254, 99: 554, 100: 792, 101: 694, 102: 456, 103: 694, 104: 456, 105: 652, 106: 414, 107: 30, 108: 268, 109: 554, 110: 792, 111: 30, 112: 268, 113: 540, 114: 778, 115: 554, 116: 792, 117: 554, 118: 792, 119: 380, 120: 142, 121: 554, 122: 792, 123: 554, 124: 792, 125: 30, 126: 268, 127: 540, 128: 778, 129: 478, 130: 240, 131: 16, 132: 254, 133: 456, 134: 694, 135: 478, 136: 240, 137: 414, 138: 652, 139: 414, 140: 652, 141: 414, 142: 652, 143: 456, 144: 694, 145: 394, 146: 156, 147: 268, 148: 30, 149: 254, 150: 16, 151: 778, 152: 540, 153: 540, 154: 778, 155: 478, 156: 240, 157: 652, 158: 414, 159: 394, 160: 156, 161: 380, 162: 142, 163: 240, 164: 478, 165: 282, 166: 44, 167: 30, 168: 268, 169: 694, 170: 456, 171: 30, 172: 268, 173: 142, 174: 380, 175: 792, 176: 554, 177: 792, 178: 554, 179: 240, 180: 478, 181: 540, 182: 778, 183: 792, 184: 554, 185: 30, 186: 268, 187: 394, 188: 156, 189: 478, 190: 240, 191: 652, 192: 414, 193: 44, 194: 282, 195: 778, 196: 540, 197: 414, 198: 652, 199: 380, 200: 142, 201: 652, 202: 414, 203: 540, 204: 778, 205: 778, 206: 540, 207: 792, 208: 554, 209: 456, 210: 694, 211: 778, 212: 540, 213: 240, 214: 478, 215: 652, 216: 414, 217: 142, 218: 380, 219: 554, 220: 792, 221: 156, 222: 394, 223: 30, 224: 268, 225: 16, 226: 254, 227: 240, 228: 478, 229: 554, 230: 792, 231: 652, 232: 414, 233: 380, 234: 142, 235: 30, 236: 268, 237: 540, 238: 778, 239: 414, 240: 652, 241: 792, 242: 554, 243: 652, 244: 414, 245: 778, 246: 540, 247: 240, 248: 478, 249: 282, 250: 44, 251: 394, 252: 156, 253: 268, 254: 30, 255: 478, 256: 240, 257: 652, 258: 414, 259: 240, 260: 478, 261: 380, 262: 142, 263: 142, 264: 380, 265: 240, 266: 478, 267: 456, 268: 694, 269: 540, 270: 778, 271: 30, 272: 268, 273: 282, 274: 44, 275: 142, 276: 380, 277: 778, 278: 540, 279: 540, 280: 778, 281: 778, 282: 540, 283: 30, 284: 268, 285: 478, 286: 240, 287: 456, 288: 694, 289: 16, 290: 254, 291: 142, 292: 380, 293: 380, 294: 142, 295: 30, 296: 268, 297: 478, 298: 240, 299: 478, 300: 240, 301: 414, 302: 652, 303: 254, 304: 16, 305: 540, 306: 778, 307: 268, 308: 30, 309: 478, 310: 240, 311: 240, 312: 478, 313: 240, 314: 478, 315: 414, 316: 652, 317: 240, 318: 478, 319: 380, 320: 142, 321: 554, 322: 792, 323: 380, 324: 142, 325: 394, 326: 156, 327: 142, 328: 380, 329: 30, 330: 268, 331: 694, 332: 456, 333: 30, 334: 268, 335: 254, 336: 16, 337: 456, 338: 694, 339: 142, 340: 380, 341: 414, 342: 652, 343: 792, 344: 554, 345: 778, 346: 540, 347: 694, 348: 456, 349: 142, 350: 380, 351: 478, 352: 240, 353: 778, 354: 540, 355: 652, 356: 414, 357: 44, 358: 282, 359: 778, 360: 540, 361: 380, 362: 142, 363: 30, 364: 268, 365: 652, 366: 414, 367: 652, 368: 414, 369: 540, 370: 778, 371: 16, 372: 254, 373: 652, 374: 414, 375: 30, 376: 268, 377: 268, 378: 30, 379: 652, 380: 414, 381: 30, 382: 268, 383: 652, 384: 414, 385: 30, 386: 268, 387: 540, 388: 778, 389: 554, 390: 792, 391: 254, 392: 16, 393: 554, 394: 792, 395: 268, 396: 30, 397: 394, 398: 156, 399: 268, 400: 30}
Number of labels used: 20
Total time: 36.64 sec
Memory: 321.50 MB
=============================================
*     0+    0                           16.0000       14.0000            12.50%

========== NEW INCUMBENT SOLUTION ==========
{1: 268, 2: 30, 3: 268, 4: 30, 5: 540, 6: 778, 7: 792, 8: 554, 9: 30, 10: 268, 11: 268, 12: 30, 13: 142, 14: 380, 15: 554, 16: 792, 17: 156, 18: 394, 19: 30, 20: 268, 21: 414, 22: 652, 23: 792, 24: 554, 25: 554, 26: 792, 27: 142, 28: 380, 29: 554, 30: 792, 31: 652, 32: 414, 33: 792, 34: 554, 35: 554, 36: 792, 37: 142, 38: 380, 39: 394, 40: 156, 41: 414, 42: 652, 43: 652, 44: 414, 45: 540, 46: 778, 47: 156, 48: 394, 49: 156, 50: 394, 51: 414, 52: 652, 53: 142, 54: 380, 55: 394, 56: 156, 57: 652, 58: 414, 59: 394, 60: 156, 61: 554, 62: 792, 63: 778, 64: 540, 65: 30, 66: 268, 67: 554, 68: 792, 69: 142, 70: 380, 71: 478, 72: 240, 73: 268, 74: 30, 75: 652, 76: 414, 77: 540, 78: 778, 79: 156, 80: 394, 81: 394, 82: 156, 83: 652, 84: 414, 85: 394, 86: 156, 87: 792, 88: 554, 89: 652, 90: 414, 91: 30, 92: 268, 93: 268, 94: 30, 95: 414, 96: 652, 97: 652, 98: 414, 99: 380, 100: 142, 101: 156, 102: 394, 103: 554, 104: 792, 105: 652, 106: 414, 107: 30, 108: 268, 109: 156, 110: 394, 111: 414, 112: 652, 113: 30, 114: 268, 115: 554, 116: 792, 117: 554, 118: 792, 119: 240, 120: 478, 121: 554, 122: 792, 123: 554, 124: 792, 125: 30, 126: 268, 127: 540, 128: 778, 129: 240, 130: 478, 131: 30, 132: 268, 133: 394, 134: 156, 135: 478, 136: 240, 137: 380, 138: 142, 139: 414, 140: 652, 141: 652, 142: 414, 143: 778, 144: 540, 145: 394, 146: 156, 147: 414, 148: 652, 149: 540, 150: 778, 151: 652, 152: 414, 153: 268, 154: 30, 155: 478, 156: 240, 157: 792, 158: 554, 159: 394, 160: 156, 161: 380, 162: 142, 163: 240, 164: 478, 165: 268, 166: 30, 167: 778, 168: 540, 169: 394, 170: 156, 171: 30, 172: 268, 173: 142, 174: 380, 175: 792, 176: 554, 177: 792, 178: 554, 179: 240, 180: 478, 181: 540, 182: 778, 183: 156, 184: 394, 185: 268, 186: 30, 187: 394, 188: 156, 189: 478, 190: 240, 191: 792, 192: 554, 193: 792, 194: 554, 195: 540, 196: 778, 197: 268, 198: 30, 199: 778, 200: 540, 201: 652, 202: 414, 203: 30, 204: 268, 205: 778, 206: 540, 207: 792, 208: 554, 209: 394, 210: 156, 211: 778, 212: 540, 213: 240, 214: 478, 215: 414, 216: 652, 217: 30, 218: 268, 219: 554, 220: 792, 221: 156, 222: 394, 223: 414, 224: 652, 225: 540, 226: 778, 227: 240, 228: 478, 229: 554, 230: 792, 231: 414, 232: 652, 233: 380, 234: 142, 235: 778, 236: 540, 237: 540, 238: 778, 239: 414, 240: 652, 241: 156, 242: 394, 243: 540, 244: 778, 245: 142, 246: 380, 247: 380, 248: 142, 249: 540, 250: 778, 251: 540, 252: 778, 253: 30, 254: 268, 255: 240, 256: 478, 257: 30, 258: 268, 259: 478, 260: 240, 261: 380, 262: 142, 263: 380, 264: 142, 265: 240, 266: 478, 267: 540, 268: 778, 269: 540, 270: 778, 271: 554, 272: 792, 273: 380, 274: 142, 275: 652, 276: 414, 277: 540, 278: 778, 279: 778, 280: 540, 281: 142, 282: 380, 283: 30, 284: 268, 285: 240, 286: 478, 287: 414, 288: 652, 289: 778, 290: 540, 291: 142, 292: 380, 293: 380, 294: 142, 295: 380, 296: 142, 297: 240, 298: 478, 299: 240, 300: 478, 301: 554, 302: 792, 303: 394, 304: 156, 305: 540, 306: 778, 307: 268, 308: 30, 309: 240, 310: 478, 311: 478, 312: 240, 313: 240, 314: 478, 315: 414, 316: 652, 317: 478, 318: 240, 319: 540, 320: 778, 321: 554, 322: 792, 323: 30, 324: 268, 325: 414, 326: 652, 327: 30, 328: 268, 329: 30, 330: 268, 331: 156, 332: 394, 333: 792, 334: 554, 335: 414, 336: 652, 337: 268, 338: 30, 339: 142, 340: 380, 341: 414, 342: 652, 343: 142, 344: 380, 345: 30, 346: 268, 347: 380, 348: 142, 349: 240, 350: 478, 351: 478, 352: 240, 353: 394, 354: 156, 355: 30, 356: 268, 357: 512, 358: 750, 359: 778, 360: 540, 361: 268, 362: 30, 363: 394, 364: 156, 365: 652, 366: 414, 367: 268, 368: 30, 369: 142, 370: 380, 371: 30, 372: 268, 373: 394, 374: 156, 375: 30, 376: 268, 377: 268, 378: 30, 379: 156, 380: 394, 381: 30, 382: 268, 383: 156, 384: 394, 385: 792, 386: 554, 387: 268, 388: 30, 389: 554, 390: 792, 391: 142, 392: 380, 393: 554, 394: 792, 395: 268, 396: 30, 397: 414, 398: 652, 399: 778, 400: 540}
Number of labels used: 16
Total time: 36.67 sec
Memory: 321.50 MB
=============================================

========== NEW INCUMBENT SOLUTION ==========
{1: 268, 2: 30, 3: 268, 4: 30, 5: 540, 6: 778, 7: 792, 8: 554, 9: 30, 10: 268, 11: 268, 12: 30, 13: 142, 14: 380, 15: 554, 16: 792, 17: 156, 18: 394, 19: 30, 20: 268, 21: 414, 22: 652, 23: 792, 24: 554, 25: 554, 26: 792, 27: 142, 28: 380, 29: 554, 30: 792, 31: 652, 32: 414, 33: 792, 34: 554, 35: 554, 36: 792, 37: 142, 38: 380, 39: 394, 40: 156, 41: 414, 42: 652, 43: 652, 44: 414, 45: 540, 46: 778, 47: 156, 48: 394, 49: 156, 50: 394, 51: 414, 52: 652, 53: 142, 54: 380, 55: 394, 56: 156, 57: 652, 58: 414, 59: 394, 60: 156, 61: 554, 62: 792, 63: 778, 64: 540, 65: 30, 66: 268, 67: 554, 68: 792, 69: 142, 70: 380, 71: 478, 72: 240, 73: 268, 74: 30, 75: 652, 76: 414, 77: 540, 78: 778, 79: 156, 80: 394, 81: 394, 82: 156, 83: 652, 84: 414, 85: 394, 86: 156, 87: 792, 88: 554, 89: 652, 90: 414, 91: 30, 92: 268, 93: 268, 94: 30, 95: 414, 96: 652, 97: 652, 98: 414, 99: 380, 100: 142, 101: 156, 102: 394, 103: 554, 104: 792, 105: 652, 106: 414, 107: 30, 108: 268, 109: 156, 110: 394, 111: 414, 112: 652, 113: 30, 114: 268, 115: 554, 116: 792, 117: 554, 118: 792, 119: 240, 120: 478, 121: 554, 122: 792, 123: 554, 124: 792, 125: 30, 126: 268, 127: 540, 128: 778, 129: 240, 130: 478, 131: 30, 132: 268, 133: 394, 134: 156, 135: 478, 136: 240, 137: 380, 138: 142, 139: 414, 140: 652, 141: 652, 142: 414, 143: 778, 144: 540, 145: 394, 146: 156, 147: 414, 148: 652, 149: 540, 150: 778, 151: 652, 152: 414, 153: 268, 154: 30, 155: 478, 156: 240, 157: 792, 158: 554, 159: 394, 160: 156, 161: 380, 162: 142, 163: 240, 164: 478, 165: 268, 166: 30, 167: 778, 168: 540, 169: 394, 170: 156, 171: 30, 172: 268, 173: 142, 174: 380, 175: 792, 176: 554, 177: 792, 178: 554, 179: 240, 180: 478, 181: 540, 182: 778, 183: 156, 184: 394, 185: 268, 186: 30, 187: 394, 188: 156, 189: 478, 190: 240, 191: 792, 192: 554, 193: 792, 194: 554, 195: 540, 196: 778, 197: 268, 198: 30, 199: 778, 200: 540, 201: 652, 202: 414, 203: 30, 204: 268, 205: 778, 206: 540, 207: 792, 208: 554, 209: 394, 210: 156, 211: 778, 212: 540, 213: 240, 214: 478, 215: 414, 216: 652, 217: 30, 218: 268, 219: 554, 220: 792, 221: 156, 222: 394, 223: 414, 224: 652, 225: 540, 226: 778, 227: 240, 228: 478, 229: 554, 230: 792, 231: 414, 232: 652, 233: 380, 234: 142, 235: 778, 236: 540, 237: 540, 238: 778, 239: 414, 240: 652, 241: 156, 242: 394, 243: 540, 244: 778, 245: 142, 246: 380, 247: 380, 248: 142, 249: 540, 250: 778, 251: 540, 252: 778, 253: 30, 254: 268, 255: 240, 256: 478, 257: 30, 258: 268, 259: 478, 260: 240, 261: 380, 262: 142, 263: 380, 264: 142, 265: 240, 266: 478, 267: 540, 268: 778, 269: 540, 270: 778, 271: 554, 272: 792, 273: 380, 274: 142, 275: 652, 276: 414, 277: 540, 278: 778, 279: 778, 280: 540, 281: 142, 282: 380, 283: 30, 284: 268, 285: 240, 286: 478, 287: 414, 288: 652, 289: 778, 290: 540, 291: 142, 292: 380, 293: 380, 294: 142, 295: 380, 296: 142, 297: 240, 298: 478, 299: 240, 300: 478, 301: 554, 302: 792, 303: 394, 304: 156, 305: 540, 306: 778, 307: 268, 308: 30, 309: 240, 310: 478, 311: 478, 312: 240, 313: 240, 314: 478, 315: 414, 316: 652, 317: 478, 318: 240, 319: 540, 320: 778, 321: 554, 322: 792, 323: 30, 324: 268, 325: 414, 326: 652, 327: 30, 328: 268, 329: 30, 330: 268, 331: 156, 332: 394, 333: 792, 334: 554, 335: 414, 336: 652, 337: 268, 338: 30, 339: 142, 340: 380, 341: 414, 342: 652, 343: 142, 344: 380, 345: 30, 346: 268, 347: 380, 348: 142, 349: 240, 350: 478, 351: 478, 352: 240, 353: 394, 354: 156, 355: 30, 356: 268, 357: 512, 358: 750, 359: 778, 360: 540, 361: 268, 362: 30, 363: 394, 364: 156, 365: 652, 366: 414, 367: 268, 368: 30, 369: 142, 370: 380, 371: 30, 372: 268, 373: 394, 374: 156, 375: 30, 376: 268, 377: 268, 378: 30, 379: 156, 380: 394, 381: 30, 382: 268, 383: 156, 384: 394, 385: 792, 386: 554, 387: 268, 388: 30, 389: 554, 390: 792, 391: 142, 392: 380, 393: 554, 394: 792, 395: 268, 396: 30, 397: 414, 398: 652, 399: 778, 400: 540}
Number of labels used: 16
Total time: 36.71 sec
Memory: 321.77 MB
=============================================
*     0     0      integral     0       14.0000       Cuts: 8     9737    0.00%
      0     0        cutoff             14.0000       14.0000     9737    0.00%
Elapsed time = 5.00 sec. (4689.28 ticks, tree = 0.01 MB, solutions = 5)

Clique cuts applied:  11
Zero-half cuts applied:  22
Gomory fractional cuts applied:  7

Root node processing (before b&c):
  Real time             =    5.00 sec. (4690.77 ticks)
Parallel b&c, 12 threads:
  Real time             =    0.00 sec. (0.00 ticks)
  Sync time (average)   =    0.00 sec.
  Wait time (average)   =    0.00 sec.
                          ------------
Total (root+branch&cut) =    5.00 sec. (4690.77 ticks)
Solution :
{268, 30, 268, 30, 540, 778, 792, 554, 30, 268, 268, 30, 142, 380, 792, 554, 156, 394, 30, 268, 414, 652, 792, 554, 554, 792, 142, 380, 554, 792, 652, 414, 792, 554, 554, 792, 142, 380, 394, 156, 414, 652, 652, 414, 540, 778, 156, 394, 156, 394, 414, 652, 142, 380, 394, 156, 652, 414, 394, 156, 554, 792, 778, 540, 30, 268, 554, 792, 142, 380, 478, 240, 268, 30, 652, 414, 540, 778, 156, 394, 394, 156, 652, 414, 394, 156, 792, 554, 652, 414, 30, 268, 268, 30, 414, 652, 652, 414, 380, 142, 142, 380, 554, 792, 652, 414, 30, 268, 156, 394, 414, 652, 30, 268, 554, 792, 554, 792, 240, 478, 554, 792, 554, 792, 30, 268, 540, 778, 240, 478, 30, 268, 394, 156, 478, 240, 380, 142, 414, 652, 652, 414, 778, 540, 394, 156, 414, 652, 540, 778, 652, 414, 268, 30, 478, 240, 792, 554, 394, 156, 380, 142, 240, 478, 268, 30, 778, 540, 394, 156, 30, 268, 142, 380, 792, 554, 792, 554, 240, 478, 540, 778, 156, 394, 268, 30, 394, 156, 478, 240, 652, 414, 792, 554, 540, 778, 268, 30, 778, 540, 652, 414, 30, 268, 778, 540, 792, 554, 394, 156, 778, 540, 240, 478, 414, 652, 30, 268, 554, 792, 156, 394, 414, 652, 540, 778, 240, 478, 554, 792, 414, 652, 380, 142, 778, 540, 540, 778, 414, 652, 156, 394, 156, 394, 142, 380, 380, 142, 540, 778, 540, 778, 778, 540, 240, 478, 30, 268, 478, 240, 380, 142, 380, 142, 240, 478, 540, 778, 540, 778, 554, 792, 380, 142, 652, 414, 540, 778, 30, 268, 142, 380, 30, 268, 240, 478, 414, 652, 778, 540, 142, 380, 380, 142, 380, 142, 240, 478, 240, 478, 554, 792, 394, 156, 540, 778, 268, 30, 240, 478, 478, 240, 240, 478, 414, 652, 478, 240, 540, 778, 554, 792, 30, 268, 414, 652, 30, 268, 30, 268, 156, 394, 792, 554, 414, 652, 268, 30, 142, 380, 414, 652, 142, 380, 30, 268, 380, 142, 240, 478, 478, 240, 394, 156, 30, 268, 554, 792, 778, 540, 268, 30, 394, 156, 652, 414, 268, 30, 142, 380, 30, 268, 394, 156, 30, 268, 268, 30, 156, 394, 30, 268, 156, 394, 792, 554, 268, 30, 554, 792, 142, 380, 554, 792, 268, 30, 414, 652, 778, 540}
Number of labels used: 14
[runlim] end:			Tue Jan 20 12:26:12 2026
[runlim] status:		ok
[runlim] result:		0
[runlim] children:		0
[runlim] real:			37.52 seconds
[runlim] time:			45.82 seconds
[runlim] space:			320.0 MB
[runlim] samples:		367
